NAME : rby1599
COMMENT : Bonn VLSI data set with 1599 points
COMMENT : Uni Bonn, Research Institute for Discrete Math
COMMENT : Contributed by Andre Rohe
TYPE : TSP
DIMENSION : 1599
EDGE_WEIGHT_TYPE : EUC_2D
NODE_COORD_SECTION
1 2 102
2 2 11
3 2 113
4 2 115
5 2 127
6 2 130
7 2 141
8 2 144
9 2 146
10 2 147
11 2 149
12 2 150
13 2 152
14 2 153
15 2 155
16 2 156
17 2 157
18 2 158
19 2 172
20 2 173
21 2 174
22 2 176
23 2 178
24 2 186
25 2 202
26 2 22
27 2 24
28 2 36
29 2 39
30 2 50
31 2 52
32 2 64
33 2 67
34 2 78
35 2 80
36 2 86
37 2 87
38 2 99
39 5 146
40 5 149
41 5 152
42 5 155
43 5 162
44 5 165
45 5 169
46 5 177
47 5 179
48 5 181
49 5 183
50 5 8
51 9 144
52 9 147
53 9 150
54 9 153
55 10 144
56 10 147
57 10 150
58 10 153
59 10 176
60 10 178
61 11 144
62 11 147
63 11 150
64 11 153
65 11 160
66 11 163
67 11 176
68 11 178
69 11 180
70 11 192
71 12 5
72 15 177
73 15 179
74 15 181
75 15 183
76 15 8
77 17 157
78 17 158
79 17 173
80 17 174
81 17 186
82 17 80
83 18 102
84 18 11
85 18 113
86 18 115
87 18 127
88 18 130
89 18 141
90 18 202
91 18 22
92 18 24
93 18 36
94 18 39
95 18 50
96 18 52
97 18 64
98 18 67
99 18 78
100 18 86
101 18 87
102 18 99
103 25 102
104 25 11
105 25 113
106 25 115
107 25 127
108 25 130
109 25 141
110 25 144
111 25 146
112 25 147
113 25 148
114 25 150
115 25 152
116 25 153
117 25 154
118 25 155
119 25 157
120 25 158
121 25 159
122 25 161
123 25 163
124 25 165
125 25 167
126 25 176
127 25 178
128 25 181
129 25 183
130 25 185
131 25 192
132 25 22
133 25 24
134 25 36
135 25 39
136 25 50
137 25 52
138 25 64
139 25 67
140 25 78
141 25 80
142 25 86
143 25 87
144 25 99
145 28 152
146 28 162
147 28 164
148 28 167
149 28 171
150 28 183
151 28 197
152 28 200
153 28 204
154 28 6
155 32 146
156 32 150
157 32 165
158 32 181
159 33 150
160 33 161
161 33 163
162 33 165
163 33 181
164 34 145
165 34 150
166 34 161
167 34 163
168 34 165
169 34 172
170 34 181
171 34 195
172 34 198
173 34 5
174 35 168
175 38 148
176 38 162
177 38 164
178 38 171
179 38 6
180 40 154
181 40 155
182 40 158
183 40 159
184 40 185
185 40 80
186 41 102
187 41 11
188 41 113
189 41 115
190 41 127
191 41 130
192 41 141
193 41 192
194 41 22
195 41 24
196 41 36
197 41 39
198 41 50
199 41 52
200 41 64
201 41 67
202 41 78
203 41 86
204 41 87
205 41 99
206 48 105
207 48 107
208 48 108
209 48 110
210 48 111
211 48 113
212 48 114
213 48 115
214 48 117
215 48 119
216 48 12
217 48 120
218 48 122
219 48 123
220 48 125
221 48 138
222 48 14
223 48 154
224 48 157
225 48 164
226 48 167
227 48 169
228 48 170
229 48 172
230 48 173
231 48 175
232 48 176
233 48 178
234 48 179
235 48 180
236 48 194
237 48 24
238 48 26
239 48 27
240 48 29
241 48 31
242 48 38
243 48 43
244 48 45
245 48 46
246 48 48
247 48 49
248 48 51
249 48 52
250 48 54
251 48 62
252 48 64
253 48 65
254 48 67
255 48 68
256 48 70
257 48 71
258 48 73
259 48 78
260 48 80
261 48 86
262 48 87
263 48 89
264 48 90
265 48 92
266 48 94
267 48 95
268 48 97
269 51 100
270 51 104
271 51 107
272 51 110
273 51 119
274 51 122
275 51 125
276 51 128
277 51 130
278 51 133
279 51 135
280 51 158
281 51 169
282 51 17
283 51 172
284 51 175
285 51 184
286 51 186
287 51 189
288 51 191
289 51 20
290 51 22
291 51 26
292 51 29
293 51 45
294 51 48
295 51 51
296 51 54
297 51 56
298 51 58
299 51 64
300 51 67
301 51 7
302 51 70
303 51 73
304 51 83
305 51 94
306 51 97
307 55 105
308 55 108
309 55 113
310 55 117
311 55 120
312 55 123
313 55 167
314 55 170
315 55 173
316 55 178
317 55 24
318 55 27
319 55 43
320 55 46
321 55 49
322 55 52
323 55 62
324 55 65
325 55 68
326 55 71
327 55 92
328 55 95
329 56 105
330 56 108
331 56 117
332 56 120
333 56 123
334 56 157
335 56 167
336 56 170
337 56 173
338 56 24
339 56 27
340 56 43
341 56 46
342 56 49
343 56 52
344 56 62
345 56 65
346 56 68
347 56 71
348 56 92
349 56 95
350 57 105
351 57 108
352 57 112
353 57 117
354 57 120
355 57 123
356 57 126
357 57 129
358 57 132
359 57 144
360 57 157
361 57 16
362 57 167
363 57 170
364 57 173
365 57 177
366 57 182
367 57 185
368 57 188
369 57 19
370 57 200
371 57 24
372 57 27
373 57 43
374 57 46
375 57 49
376 57 5
377 57 52
378 57 55
379 57 62
380 57 65
381 57 68
382 57 71
383 57 74
384 57 8
385 57 82
386 57 92
387 57 95
388 57 98
389 58 101
390 61 104
391 61 115
392 61 130
393 61 133
394 61 135
395 61 158
396 61 17
397 61 180
398 61 186
399 61 189
400 61 191
401 61 20
402 61 22
403 61 56
404 61 58
405 61 83
406 63 138
407 63 194
408 63 31
409 63 86
410 63 90
411 64 154
412 64 164
413 64 38
414 71 105
415 71 107
416 71 108
417 71 109
418 71 11
419 71 111
420 71 113
421 71 118
422 71 121
423 71 123
424 71 124
425 71 126
426 71 127
427 71 129
428 71 138
429 71 140
430 71 144
431 71 146
432 71 147
433 71 149
434 71 152
435 71 175
436 71 191
437 71 27
438 71 31
439 71 33
440 71 34
441 71 36
442 71 37
443 71 38
444 71 40
445 71 42
446 71 43
447 71 44
448 71 46
449 71 48
450 71 49
451 71 51
452 71 52
453 71 54
454 71 55
455 71 56
456 71 68
457 71 70
458 71 71
459 71 73
460 71 74
461 71 75
462 71 82
463 71 86
464 71 88
465 71 89
466 71 90
467 71 92
468 71 94
469 74 113
470 74 115
471 74 123
472 74 126
473 74 129
474 74 133
475 74 146
476 74 149
477 74 170
478 74 172
479 74 196
480 74 199
481 74 203
482 74 33
483 74 48
484 74 51
485 74 6
486 74 60
487 74 64
488 74 66
489 74 70
490 74 8
491 74 94
492 78 107
493 78 111
494 78 121
495 78 124
496 78 127
497 78 144
498 78 147
499 78 31
500 78 36
501 78 42
502 78 46
503 78 49
504 78 54
505 78 68
506 78 73
507 78 88
508 78 92
509 79 111
510 79 121
511 79 124
512 79 127
513 79 144
514 79 147
515 79 150
516 79 31
517 79 46
518 79 49
519 79 68
520 79 92
521 80 106
522 80 111
523 80 114
524 80 121
525 80 124
526 80 127
527 80 134
528 80 144
529 80 147
530 80 150
531 80 169
532 80 17
533 80 181
534 80 194
535 80 197
536 80 31
537 80 35
538 80 41
539 80 46
540 80 49
541 80 5
542 80 53
543 80 58
544 80 65
545 80 68
546 80 72
547 80 87
548 80 92
549 80 99
550 81 130
551 81 61
552 84 109
553 84 115
554 84 133
555 84 170
556 84 172
557 84 38
558 84 44
559 84 56
560 84 6
561 84 64
562 84 66
563 84 75
564 84 8
565 84 90
566 86 11
567 86 118
568 86 175
569 87 191
570 87 27
571 87 82
572 94 101
573 94 112
574 94 114
575 94 115
576 94 116
577 94 118
578 94 120
579 94 121
580 94 123
581 94 124
582 94 126
583 94 127
584 94 129
585 94 130
586 94 131
587 94 133
588 94 135
589 94 136
590 94 137
591 94 139
592 94 141
593 94 142
594 94 143
595 94 145
596 94 147
597 94 148
598 94 150
599 94 152
600 94 154
601 94 156
602 94 171
603 94 173
604 94 184
605 94 200
606 94 21
607 94 23
608 94 28
609 94 30
610 94 32
611 94 33
612 94 35
613 94 36
614 94 38
615 94 39
616 94 41
617 94 42
618 94 43
619 94 59
620 94 62
621 94 64
622 94 65
623 94 67
624 94 68
625 94 69
626 94 84
627 94 87
628 94 89
629 94 90
630 94 92
631 94 93
632 94 95
633 94 96
634 94 97
635 94 99
636 97 101
637 97 104
638 97 107
639 97 11
640 97 111
641 97 120
642 97 123
643 97 126
644 97 147
645 97 149
646 97 15
647 97 151
648 97 153
649 97 155
650 97 157
651 97 161
652 97 165
653 97 176
654 97 179
655 97 181
656 97 26
657 97 29
658 97 32
659 97 35
660 97 38
661 97 64
662 97 7
663 97 74
664 97 76
665 97 79
666 97 81
667 97 89
668 97 92
669 101 11
670 101 114
671 101 118
672 101 121
673 101 124
674 101 129
675 101 135
676 101 141
677 101 145
678 101 15
679 101 158
680 101 161
681 101 165
682 101 30
683 101 33
684 101 36
685 101 41
686 101 62
687 101 67
688 101 8
689 101 87
690 101 90
691 101 95
692 101 99
693 102 118
694 102 121
695 102 124
696 102 13
697 102 145
698 102 148
699 102 150
700 102 152
701 102 154
702 102 156
703 102 159
704 102 163
705 102 28
706 102 30
707 102 33
708 102 36
709 102 62
710 102 87
711 102 9
712 102 90
713 102 99
714 103 102
715 103 105
716 103 113
717 103 118
718 103 121
719 103 124
720 103 128
721 103 134
722 103 140
723 103 145
724 103 148
725 103 150
726 103 152
727 103 154
728 103 156
729 103 167
730 103 17
731 103 175
732 103 178
733 103 190
734 103 25
735 103 28
736 103 30
737 103 33
738 103 36
739 103 40
740 103 49
741 103 5
742 103 62
743 103 66
744 103 75
745 103 78
746 103 87
747 103 90
748 103 94
749 103 99
750 104 71
751 107 10
752 107 116
753 107 131
754 107 137
755 107 14
756 107 143
757 107 149
758 107 151
759 107 153
760 107 155
761 107 157
762 107 160
763 107 164
764 107 176
765 107 179
766 107 181
767 107 26
768 107 29
769 107 43
770 107 69
771 107 74
772 107 76
773 107 79
774 107 81
775 107 97
776 109 184
777 109 84
778 110 200
779 110 59
780 117 102
781 117 11
782 117 113
783 117 115
784 117 127
785 117 130
786 117 141
787 117 144
788 117 146
789 117 150
790 117 152
791 117 153
792 117 155
793 117 156
794 117 157
795 117 158
796 117 161
797 117 163
798 117 165
799 117 170
800 117 172
801 117 177
802 117 179
803 117 181
804 117 182
805 117 184
806 117 186
807 117 192
808 117 22
809 117 24
810 117 36
811 117 39
812 117 50
813 117 52
814 117 64
815 117 67
816 117 78
817 117 80
818 117 86
819 117 87
820 117 99
821 120 146
822 120 149
823 120 152
824 120 155
825 120 165
826 120 167
827 120 172
828 120 176
829 120 178
830 120 183
831 120 186
832 120 197
833 120 200
834 120 204
835 120 209
836 120 8
837 121 209
838 122 209
839 123 179
840 123 209
841 124 144
842 124 150
843 124 153
844 124 163
845 124 170
846 124 179
847 124 184
848 125 144
849 125 150
850 125 153
851 125 163
852 125 170
853 125 177
854 125 180
855 125 182
856 125 184
857 126 144
858 126 147
859 126 150
860 126 153
861 126 163
862 126 166
863 126 170
864 126 177
865 126 179
866 126 182
867 126 184
868 126 195
869 126 198
870 127 173
871 127 5
872 130 167
873 130 176
874 130 178
875 130 181
876 130 183
877 130 8
878 132 157
879 132 158
880 132 161
881 132 80
882 133 102
883 133 11
884 133 113
885 133 115
886 133 127
887 133 130
888 133 141
889 133 192
890 133 22
891 133 24
892 133 36
893 133 39
894 133 50
895 133 52
896 133 64
897 133 67
898 133 78
899 133 86
900 133 87
901 133 99
902 140 108
903 140 111
904 140 122
905 140 124
906 140 136
907 140 139
908 140 150
909 140 154
910 140 155
911 140 157
912 140 158
913 140 159
914 140 161
915 140 163
916 140 165
917 140 167
918 140 168
919 140 170
920 140 171
921 140 172
922 140 191
923 140 193
924 140 20
925 140 31
926 140 33
927 140 45
928 140 48
929 140 59
930 140 6
931 140 61
932 140 73
933 140 76
934 140 87
935 140 89
936 140 95
937 140 96
938 143 162
939 143 164
940 143 167
941 143 177
942 143 181
943 143 185
944 143 196
945 143 199
946 143 201
947 147 165
948 147 170
949 147 178
950 147 181
951 147 185
952 148 161
953 148 163
954 148 165
955 148 179
956 148 183
957 149 12
958 149 161
959 149 163
960 149 165
961 149 169
962 149 187
963 149 195
964 149 198
965 150 174
966 153 162
967 153 164
968 153 172
969 153 177
970 153 180
971 153 184
972 153 196
973 153 199
974 153 201
975 155 154
976 155 158
977 155 159
978 155 6
979 155 89
980 156 108
981 156 111
982 156 122
983 156 124
984 156 136
985 156 139
986 156 150
987 156 20
988 156 31
989 156 33
990 156 45
991 156 48
992 156 59
993 156 61
994 156 73
995 156 76
996 156 87
997 156 95
998 156 96
999 160 209
1000 163 101
1001 163 102
1002 163 104
1003 163 106
1004 163 107
1005 163 113
1006 163 115
1007 163 121
1008 163 123
1009 163 124
1010 163 126
1011 163 138
1012 163 140
1013 163 141
1014 163 142
1015 163 144
1016 163 146
1017 163 147
1018 163 149
1019 163 150
1020 163 152
1021 163 157
1022 163 159
1023 163 16
1024 163 163
1025 163 165
1026 163 166
1027 163 168
1028 163 169
1029 163 171
1030 163 172
1031 163 174
1032 163 175
1033 163 177
1034 163 178
1035 163 179
1036 163 185
1037 163 201
1038 163 30
1039 163 32
1040 163 33
1041 163 35
1042 163 36
1043 163 38
1044 163 39
1045 163 41
1046 163 42
1047 163 43
1048 163 49
1049 163 51
1050 163 52
1051 163 54
1052 163 60
1053 163 75
1054 163 77
1055 163 78
1056 163 80
1057 163 81
1058 163 83
1059 163 85
1060 163 86
1061 163 9
1062 163 94
1063 163 96
1064 163 98
1065 163 99
1066 166 101
1067 166 104
1068 166 118
1069 166 123
1070 166 126
1071 166 130
1072 166 134
1073 166 146
1074 166 149
1075 166 152
1076 166 156
1077 166 159
1078 166 162
1079 166 165
1080 166 168
1081 166 171
1082 166 174
1083 166 182
1084 166 21
1085 166 24
1086 166 28
1087 166 32
1088 166 35
1089 166 38
1090 166 48
1091 166 51
1092 166 54
1093 166 6
1094 166 65
1095 166 68
1096 166 72
1097 166 77
1098 166 80
1099 166 83
1100 166 89
1101 166 91
1102 166 98
1103 170 102
1104 170 121
1105 170 124
1106 170 127
1107 170 130
1108 170 134
1109 170 140
1110 170 144
1111 170 147
1112 170 150
1113 170 157
1114 170 163
1115 170 166
1116 170 169
1117 170 172
1118 170 177
1119 170 30
1120 170 33
1121 170 36
1122 170 41
1123 170 49
1124 170 52
1125 170 75
1126 170 78
1127 170 81
1128 170 96
1129 170 99
1130 171 102
1131 171 121
1132 171 124
1133 171 128
1134 171 132
1135 171 144
1136 171 147
1137 171 150
1138 171 157
1139 171 163
1140 171 166
1141 171 169
1142 171 172
1143 171 30
1144 171 33
1145 171 36
1146 171 49
1147 171 52
1148 171 75
1149 171 78
1150 171 81
1151 171 96
1152 171 99
1153 172 102
1154 172 109
1155 172 117
1156 172 121
1157 172 124
1158 172 139
1159 172 144
1160 172 147
1161 172 150
1162 172 157
1163 172 160
1164 172 163
1165 172 166
1166 172 169
1167 172 172
1168 172 176
1169 172 181
1170 172 19
1171 172 191
1172 172 22
1173 172 30
1174 172 33
1175 172 36
1176 172 40
1177 172 49
1178 172 5
1179 172 52
1180 172 63
1181 172 66
1182 172 75
1183 172 78
1184 172 81
1185 172 88
1186 172 96
1187 172 99
1188 173 153
1189 173 45
1190 176 118
1191 176 129
1192 176 133
1193 176 142
1194 176 156
1195 176 179
1196 176 182
1197 176 43
1198 176 48
1199 176 6
1200 176 89
1201 176 91
1202 178 106
1203 178 185
1204 178 85
1205 178 9
1206 178 94
1207 179 16
1208 179 201
1209 179 60
1210 186 101
1211 186 102
1212 186 104
1213 186 105
1214 186 106
1215 186 108
1216 186 110
1217 186 111
1218 186 113
1219 186 114
1220 186 116
1221 186 117
1222 186 119
1223 186 120
1224 186 121
1225 186 132
1226 186 134
1227 186 136
1228 186 137
1229 186 139
1230 186 147
1231 186 149
1232 186 150
1233 186 152
1234 186 154
1235 186 157
1236 186 159
1237 186 161
1238 186 163
1239 186 164
1240 186 165
1241 186 170
1242 186 172
1243 186 174
1244 186 176
1245 186 177
1246 186 179
1247 186 180
1248 186 182
1249 186 184
1250 186 200
1251 186 22
1252 186 24
1253 186 27
1254 186 29
1255 186 30
1256 186 31
1257 186 33
1258 186 35
1259 186 36
1260 186 38
1261 186 39
1262 186 41
1263 186 42
1264 186 44
1265 186 45
1266 186 47
1267 186 62
1268 186 79
1269 186 96
1270 186 98
1271 186 99
1272 189 101
1273 189 110
1274 189 113
1275 189 116
1276 189 12
1277 189 124
1278 189 127
1279 189 129
1280 189 136
1281 189 139
1282 189 142
1283 189 146
1284 189 149
1285 189 152
1286 189 159
1287 189 16
1288 189 169
1289 189 171
1290 189 173
1291 189 176
1292 189 179
1293 189 182
1294 189 35
1295 189 38
1296 189 41
1297 189 44
1298 189 47
1299 189 67
1300 189 70
1301 189 74
1302 189 8
1303 189 98
1304 193 104
1305 193 108
1306 193 111
1307 193 114
1308 193 119
1309 193 12
1310 193 134
1311 193 137
1312 193 147
1313 193 150
1314 193 157
1315 193 16
1316 193 163
1317 193 174
1318 193 177
1319 193 180
1320 193 29
1321 193 33
1322 193 36
1323 193 39
1324 193 42
1325 193 45
1326 193 9
1327 193 96
1328 193 99
1329 194 10
1330 194 108
1331 194 111
1332 194 114
1333 194 134
1334 194 137
1335 194 14
1336 194 147
1337 194 150
1338 194 157
1339 194 170
1340 194 172
1341 194 174
1342 194 177
1343 194 180
1344 194 33
1345 194 36
1346 194 39
1347 194 42
1348 194 45
1349 194 77
1350 194 96
1351 194 99
1352 195 103
1353 195 108
1354 195 111
1355 195 114
1356 195 118
1357 195 123
1358 195 126
1359 195 134
1360 195 137
1361 195 140
1362 195 147
1363 195 150
1364 195 157
1365 195 162
1366 195 167
1367 195 170
1368 195 172
1369 195 174
1370 195 177
1371 195 18
1372 195 180
1373 195 190
1374 195 28
1375 195 33
1376 195 36
1377 195 39
1378 195 42
1379 195 45
1380 195 52
1381 195 65
1382 195 68
1383 195 77
1384 195 96
1385 195 99
1386 196 143
1387 196 5
1388 199 106
1389 199 11
1390 199 121
1391 199 124
1392 199 127
1393 199 129
1394 199 146
1395 199 15
1396 199 165
1397 199 171
1398 199 173
1399 199 31
1400 199 8
1401 201 132
1402 201 154
1403 201 184
1404 202 200
1405 202 62
1406 209 105
1407 209 113
1408 209 115
1409 209 116
1410 209 118
1411 209 119
1412 209 120
1413 209 122
1414 209 124
1415 209 125
1416 209 127
1417 209 128
1418 209 129
1419 209 138
1420 209 140
1421 209 141
1422 209 143
1423 209 144
1424 209 145
1425 209 147
1426 209 149
1427 209 150
1428 209 151
1429 209 153
1430 209 155
1431 209 169
1432 209 171
1433 209 177
1434 209 179
1435 209 18
1436 209 180
1437 209 181
1438 209 20
1439 209 30
1440 209 32
1441 209 33
1442 209 34
1443 209 36
1444 209 38
1445 209 39
1446 209 41
1447 209 42
1448 209 43
1449 209 45
1450 209 47
1451 209 82
1452 209 84
1453 209 85
1454 209 86
1455 209 89
1456 212 110
1457 212 115
1458 212 12
1459 212 124
1460 212 132
1461 212 134
1462 212 140
1463 212 155
1464 212 159
1465 212 163
1466 212 174
1467 212 186
1468 212 192
1469 212 196
1470 212 201
1471 212 23
1472 212 26
1473 212 28
1474 212 38
1475 212 47
1476 212 50
1477 212 54
1478 212 58
1479 212 62
1480 212 68
1481 212 72
1482 212 77
1483 212 8
1484 215 193
1485 215 69
1486 216 113
1487 216 118
1488 216 12
1489 216 122
1490 216 127
1491 216 138
1492 216 143
1493 216 149
1494 216 153
1495 216 156
1496 216 159
1497 216 163
1498 216 179
1499 216 32
1500 216 36
1501 216 41
1502 216 45
1503 216 5
1504 216 8
1505 216 84
1506 217 10
1507 217 113
1508 217 122
1509 217 138
1510 217 153
1511 217 157
1512 217 161
1513 217 36
1514 217 45
1515 217 6
1516 218 108
1517 218 113
1518 218 117
1519 218 122
1520 218 126
1521 218 131
1522 218 138
1523 218 14
1524 218 142
1525 218 148
1526 218 153
1527 218 165
1528 218 173
1529 218 178
1530 218 22
1531 218 25
1532 218 31
1533 218 36
1534 218 40
1535 218 45
1536 218 48
1537 218 83
1538 218 95
1539 219 183
1540 219 55
1541 219 59
1542 222 11
1543 222 120
1544 222 129
1545 222 132
1546 222 134
1547 222 145
1548 222 151
1549 222 158
1550 222 162
1551 222 174
1552 222 181
1553 222 186
1554 222 192
1555 222 196
1556 222 201
1557 222 23
1558 222 26
1559 222 28
1560 222 34
1561 222 43
1562 222 58
1563 222 62
1564 222 68
1565 222 7
1566 222 72
1567 222 77
1568 222 86
1569 224 89
1570 225 105
1571 242 106
1572 242 113
1573 242 120
1574 242 127
1575 242 134
1576 242 141
1577 242 148
1578 242 15
1579 242 155
1580 242 162
1581 242 169
1582 242 176
1583 242 183
1584 242 190
1585 242 197
1586 242 204
1587 242 22
1588 242 29
1589 242 36
1590 242 43
1591 242 50
1592 242 57
1593 242 64
1594 242 71
1595 242 78
1596 242 8
1597 242 85
1598 242 92
1599 242 99
EOF
